
Welcome to IBM(R) ILOG(R) CPLEX(R) Interactive Optimizer 22.1.1.0
  with Simplex, Mixed Integer & Barrier Optimizers
5725-A06 5725-A29 5724-Y48 5724-Y49 5724-Y54 5724-Y55 5655-Y21
Copyright IBM Corp. 1988, 2022.  All Rights Reserved.

Type 'help' for a list of available commands.
Type 'help' followed by a command name for more
information on commands.

CPLEX> Selected objective sense:  MINIMIZE
Selected objective  name:  00000000
Selected RHS        name:  RHS1
Selected bound      name:  BOUND
Problem 'ee.mps' read.
Read time = 0.02 sec. (3.17 ticks)
CPLEX> New value for time limit in seconds: 7200
CPLEX> New value for parallel optimization mode: -1
CPLEX> New value for default parallel thread count: 40
CPLEX> New value for mixed integer optimality gap tolerance: 1e-13
CPLEX> Version identifier: 22.1.1.0 | 2022-11-28 | 9160aff4d
CPXPARAM_Threads                                 40
CPXPARAM_Parallel                                -1
CPXPARAM_TimeLimit                               7200
CPXPARAM_MIP_Tolerances_MIPGap                   1e-13
Found incumbent of value 0.000000 after 0.00 sec. (0.31 ticks)
Tried aggregator 2 times.
MIP Presolve eliminated 517 rows and 3608 columns.
MIP Presolve modified 5892 coefficients.
Aggregator did 785 substitutions.
Reduced MIP has 3227 rows, 6906 columns, and 25394 nonzeros.
Reduced MIP has 6906 binaries, 0 generals, 0 SOSs, and 0 indicators.
Presolve time = 0.06 sec. (67.47 ticks)
Probing time = 0.03 sec. (5.13 ticks)
Tried aggregator 1 time.
Detecting symmetries...
Reduced MIP has 3227 rows, 6906 columns, and 25394 nonzeros.
Reduced MIP has 6906 binaries, 0 generals, 0 SOSs, and 0 indicators.
Presolve time = 0.02 sec. (19.24 ticks)
Probing time = 0.02 sec. (4.95 ticks)
Clique table members: 16520.
MIP emphasis: balance optimality and feasibility.
MIP search method: dynamic search.
Parallel mode: opportunistic, using up to 40 threads.
Root relaxation solution time = 0.07 sec. (57.44 ticks)

        Nodes                                         Cuts/
   Node  Left     Objective  IInf  Best Integer    Best Bound    ItCnt     Gap

*     0+    0                            0.0000  -1.54000e+13              --- 
*     0+    0                      -3.60000e+12  -1.54000e+13           327.78%
*     0+    0                      -4.80000e+12  -1.54000e+13           220.83%
*     0+    0                      -6.00000e+12  -1.54000e+13           156.67%
*     0+    0                      -7.20000e+12  -1.54000e+13           113.89%
      0     0  -1.53900e+13    31  -7.20000e+12  -1.53900e+13     1631  113.75%
*     0+    0                      -1.29900e+13  -1.53900e+13            18.48%
*     0+    0                      -1.53900e+13  -1.53900e+13             0.00%
      0     0  -1.53900e+13   132  -1.53900e+13      Cuts: 50     2167    0.00%
*     0+    0                      -1.53900e+13  -1.53900e+13             0.00%
      0     0  -1.53900e+13   125  -1.53900e+13      Cuts: 69     2561    0.00%
      0     0  -1.53900e+13   191  -1.53900e+13      Cuts: 71     2704    0.00%
*     0+    0                      -1.53900e+13  -1.53900e+13             0.00%
*     0+    0                      -1.53900e+13  -1.53900e+13             0.00%
      0     2  -1.53900e+13   138  -1.53900e+13  -1.53900e+13     2704    0.00%
Elapsed time = 1.69 sec. (900.88 ticks, tree = 0.02 MB, solutions = 10)
    623   195  -1.53900e+13    43  -1.53900e+13  -1.53900e+13    62278    0.00%
   1787   219  -1.53900e+13    81  -1.53900e+13  -1.53900e+13    65283    0.00%
   2866   202        cutoff        -1.53900e+13  -1.53900e+13   111123    0.00%
   4438    51        cutoff        -1.53900e+13  -1.53900e+13   172387    0.00%
   6051    39        cutoff        -1.53900e+13  -1.53900e+13   287573    0.00%
   7229    41  -1.53900e+13    12  -1.53900e+13  -1.53900e+13   277787    0.00%
   7825    26  -1.53900e+13    47  -1.53900e+13  -1.53900e+13   306947    0.00%
   8142    26        cutoff        -1.53900e+13  -1.53900e+13   308086    0.00%

Clique cuts applied:  21
Cover cuts applied:  377
Mixed integer rounding cuts applied:  8
Zero-half cuts applied:  20
Lift and project cuts applied:  10
Gomory fractional cuts applied:  23

Root node processing (before b&c):
  Real time             =    1.17 sec. (900.01 ticks)
Parallel b&c, 40 threads:
  Real time             =    3.75 sec. (1917.55 ticks)
  Sync time (average)   =    1.30 sec.
  Wait time (average)   =    0.00 sec.
                          ------------
Total (root+branch&cut) =    4.92 sec. (2817.56 ticks)

Solution pool: 19 solutions saved.

MIP - Integer optimal solution:  Objective = -1.5389999489e+13
Solution time =    5.03 sec.  Iterations = 318966  Nodes = 8146
Deterministic time = 2817.59 ticks  (560.56 ticks/sec)

CPLEX> Solution 'p20' written to file 'ee.sol'.
CPLEX> 